(set-logic HORN)
(set-info :source |
    Benchmark: C_VC
    Output by Princess (http://www.philipp.ruemmer.org/princess.shtml)
|)
(set-info :status sat)
(declare-heap Heap Addr HeapObject
 defObj
 ((HeapObject 0) (TSLL 0)) (
  (
   (O_Int (getInt Int))
   (O_Addr (getAddr Addr))
   (O_TSLL (getTSLL TSLL))
   (defObj)
  )
  (
   (TSLL (next Addr) (data Int))
  )
))
(declare-fun inv_main103 (Heap Addr Addr Int) Bool)
(declare-fun inv_main106 (Heap Addr Addr Int) Bool)
(declare-fun inv_main109 (Heap Addr Addr Int) Bool)
(declare-fun inv_main11 (Heap Addr Addr Int) Bool)
(declare-fun inv_main111 (Heap Addr Addr Int) Bool)
(declare-fun inv_main119 (Heap Addr Addr Int) Bool)
(declare-fun inv_main12 (Heap Addr Addr Int Addr) Bool)
(declare-fun inv_main13 (Heap Addr Addr Int) Bool)
(declare-fun inv_main16 (Heap Addr Addr Int) Bool)
(declare-fun inv_main17 (Heap Addr Addr Int) Bool)
(declare-fun inv_main2 (Heap) Bool)
(declare-fun inv_main20 (Heap Addr Addr Int) Bool)
(declare-fun inv_main23 (Heap Addr Addr Int) Bool)
(declare-fun inv_main28 (Heap Addr Addr Int) Bool)
(declare-fun inv_main3 (Heap Addr) Bool)
(declare-fun inv_main32 (Heap Addr Addr Int) Bool)
(declare-fun inv_main37 (Heap Addr Addr Int) Bool)
(declare-fun inv_main4 (Heap Addr) Bool)
(declare-fun inv_main40 (Heap Addr Addr Int) Bool)
(declare-fun inv_main43 (Heap Addr Addr Int) Bool)
(declare-fun inv_main45 (Heap Addr Addr Int) Bool)
(declare-fun inv_main49 (Heap Addr Addr Int) Bool)
(declare-fun inv_main53 (Heap Addr Addr Int) Bool)
(declare-fun inv_main56 (Heap Addr Addr Int) Bool)
(declare-fun inv_main58 (Heap Addr Addr Int) Bool)
(declare-fun inv_main61 (Heap Addr Addr Int) Bool)
(declare-fun inv_main63 (Heap Addr Addr Int) Bool)
(declare-fun inv_main68 (Heap Addr Addr Int) Bool)
(declare-fun inv_main7 (Heap Addr Addr Int) Bool)
(declare-fun inv_main72 (Heap Addr Addr Int) Bool)
(declare-fun inv_main75 (Heap Addr Addr Int) Bool)
(declare-fun inv_main77 (Heap Addr Addr Int) Bool)
(declare-fun inv_main80 (Heap Addr Addr Int) Bool)
(declare-fun inv_main82 (Heap Addr Addr Int) Bool)
(declare-fun inv_main86 (Heap Addr Addr Int) Bool)
(declare-fun inv_main88 (Heap Addr Addr Int) Bool)
(declare-fun inv_main92 (Heap Addr Addr Int) Bool)
(declare-fun inv_main94 (Heap Addr Addr Int) Bool)
(declare-fun inv_main99 (Heap Addr Addr Int) Bool)
(assert (inv_main2 emptyHeap))
(assert (forall ((var0 Int) (var1 Heap) (var2 Addr) (var3 Heap) (var4 Addr) (var5 Addr) (var6 Addr) (var7 Addr) (var8 Int)) (or (not (and (inv_main61 var1 var5 var4 var0) (and (= var7 nullAddr) (and (and (and (and (= var3 var1) (= var2 var5)) (= var6 var4)) (= var8 var0)) (= var7 (next (getTSLL (read var1 (next (getTSLL (read var1 var5))))))))))) (inv_main68 var3 var2 var6 var8))))
(assert (forall ((var0 Int) (var1 Heap) (var2 Addr) (var3 Addr) (var4 Int)) (or (not (and (inv_main7 var1 var3 var2 var0) (and (= var3 nullAddr) (and (= var0 1) (and (not (= var3 nullAddr)) (= var4 0)))))) (inv_main45 var1 var3 var2 var0))))
(assert (forall ((var0 Int) (var1 Heap) (var2 Addr) (var3 Addr) (var4 Addr) (var5 Addr) (var6 Int) (var7 Heap)) (or (not (and (inv_main17 var1 var5 var4 var0) (and (and (and (= var7 (write var1 var4 (O_TSLL (TSLL (next (getTSLL (read var1 var4))) 1)))) (= var2 var5)) (= var3 var4)) (= var6 var0)))) (inv_main16 var7 var2 var3 1))))
(assert (forall ((var0 Int) (var1 Heap) (var2 Int) (var3 Heap) (var4 Addr) (var5 Addr) (var6 Addr) (var7 Addr)) (or (not (and (inv_main20 var3 var5 var4 var0) (and (and (and (= var1 (write var3 var4 (O_TSLL (TSLL (next (getTSLL (read var3 var4))) 2)))) (= var6 var5)) (= var7 var4)) (= var2 var0)))) (inv_main16 var1 var6 var7 2))))
(assert (forall ((var0 Int) (var1 Addr) (var2 Addr) (var3 Heap) (var4 Addr) (var5 Addr) (var6 Heap) (var7 Int)) (or (not (and (inv_main13 var3 var5 var4 var0) (and (not (<= 0 (+ var7 (- 2)))) (and (not (= var7 1)) (and (not (= var7 0)) (and (and (and (= var6 (write var3 var4 (O_TSLL (TSLL nullAddr (data (getTSLL (read var3 var4))))))) (= var1 var5)) (= var2 var4)) (= var7 var0))))))) (inv_main16 var6 var1 var2 var7))))
(assert (forall ((var0 Heap) (var1 Int) (var2 Int) (var3 Heap) (var4 Addr) (var5 Addr) (var6 Addr) (var7 Addr)) (or (not (and (inv_main23 var3 var5 var4 var2) (and (and (and (= var0 (write var3 var4 (O_TSLL (TSLL (next (getTSLL (read var3 var4))) 3)))) (= var6 var5)) (= var7 var4)) (= var1 var2)))) (inv_main16 var0 var6 var7 3))))
(assert (forall ((var0 Int) (var1 Heap) (var2 Addr) (var3 Heap) (var4 Addr) (var5 Addr) (var6 Int) (var7 Addr) (var8 Addr)) (or (not (and (inv_main80 var3 var5 var4 var0) (and (= var7 nullAddr) (and (and (and (and (= var1 var3) (= var2 var5)) (= var8 var4)) (= var6 var0)) (= var7 (next (getTSLL (read var3 (next (getTSLL (read var3 var5))))))))))) (inv_main88 var1 var2 var8 var6))))
(assert (forall ((var0 Int) (var1 Heap) (var2 Int) (var3 Addr) (var4 Addr) (var5 Addr) (var6 Addr) (var7 Heap) (var8 Addr)) (or (not (and (inv_main56 var1 var5 var4 var0) (and (not (= var6 nullAddr)) (and (and (and (and (= var7 var1) (= var8 var5)) (= var3 var4)) (= var2 var0)) (= var6 (next (getTSLL (read var1 var5)))))))) (inv_main61 var7 var8 var3 var2))))
(assert (forall ((var0 Int) (var1 Heap) (var2 Addr) (var3 Addr)) (or (not (and (inv_main53 var1 var3 var2 var0) (and (not (= var3 nullAddr)) (= var0 3)))) (inv_main75 var1 var3 var2 var0))))
(assert (forall ((var0 Int) (var1 Int) (var2 Addr) (var3 Int) (var4 Addr) (var5 Addr) (var6 Addr) (var7 Heap) (var8 Addr) (var9 Heap) (var10 Heap) (var11 Int) (var12 Addr) (var13 Int)) (or (not (and (inv_main106 var9 var6 var5 var1) (and (and (= var3 0) (and (not (= var1 0)) (and (and (and (and (= var7 var9) (= var2 var6)) (= var4 var5)) (= var13 var1)) (= var11 (data (getTSLL (read var9 var5))))))) (and (and (and (and (= var10 var7) (= var8 var2)) (= var12 var4)) (= var0 var13)) (or (and (<= 0 (+ var11 (- 1))) (= var3 1)) (and (not (<= 0 (+ var11 (- 1)))) (= var3 0))))))) (inv_main111 var10 var8 var12 var0))))
(assert (forall ((var0 Int) (var1 Int) (var2 Int) (var3 Addr) (var4 Heap) (var5 Addr) (var6 Addr) (var7 Heap) (var8 Addr)) (or (not (and (inv_main92 var4 var6 var5 var1) (and (not (= var0 3)) (and (and (and (and (= var7 var4) (= var3 var6)) (= var8 var5)) (= var2 var1)) (= var0 (data (getTSLL (read var4 (next (getTSLL (read var4 (next (getTSLL (read var4 (next (getTSLL (read var4 var6))))))))))))))))) (inv_main99 var7 var3 var8 var2))))
(assert (forall ((var0 Int) (var1 Heap) (var2 Addr) (var3 Addr)) (or (not (and (inv_main40 var1 var3 var2 var0) (not (= var0 2)))) (inv_main53 var1 var3 var2 var0))))
(assert (forall ((var0 Addr) (var1 Int) (var2 Addr) (var3 Int) (var4 Heap) (var5 Addr) (var6 Addr) (var7 Addr) (var8 Heap)) (or (not (and (inv_main61 var4 var6 var5 var1) (and (not (= var2 nullAddr)) (and (and (and (and (= var8 var4) (= var7 var6)) (= var0 var5)) (= var3 var1)) (= var2 (next (getTSLL (read var4 (next (getTSLL (read var4 var6))))))))))) (inv_main53 var8 var7 var0 var3))))
(assert (forall ((var0 Heap) (var1 Addr)) (or (not (inv_main3 var0 var1)) (inv_main4 (write var0 var1 (O_TSLL (TSLL nullAddr (data (getTSLL (read var0 var1)))))) var1))))
(assert (forall ((var0 Int) (var1 Heap) (var2 Addr) (var3 Addr)) (or (not (and (inv_main40 var1 var3 var2 var0) (and (not (= var3 nullAddr)) (= var0 2)))) (inv_main56 var1 var3 var2 var0))))
(assert (forall ((var0 Int) (var1 Heap) (var2 Addr) (var3 Addr) (var4 Int)) (or (not (and (inv_main7 var1 var3 var2 var0) (and (= var3 nullAddr) (= var4 0)))) (inv_main37 var1 var3 var2 var0))))
(assert (forall ((var0 Addr) (var1 Int) (var2 Addr) (var3 Heap) (var4 Addr) (var5 Addr) (var6 Addr) (var7 Int) (var8 Heap)) (or (not (and (inv_main72 var3 var5 var4 var1) (and (and (and (and (= var8 var3) (= var6 var5)) (= var2 var4)) (= var7 var1)) (= var0 (next (getTSLL (read var3 var5))))))) (inv_main103 var8 var6 var0 var7))))
(assert (forall ((var0 Addr) (var1 Int) (var2 Addr) (var3 Heap) (var4 Int) (var5 Addr) (var6 Addr) (var7 Heap) (var8 Addr)) (or (not (and (inv_main109 var3 var6 var5 var1) (and (and (and (and (= var7 var3) (= var2 var6)) (= var8 var5)) (= var4 var1)) (= var0 (next (getTSLL (read var3 var5))))))) (inv_main103 var7 var2 var0 var4))))
(assert (forall ((var0 Heap) (var1 TSLL)) (or (not (inv_main2 var0)) (inv_main3 (newHeap (alloc var0 (O_TSLL var1))) (newAddr (alloc var0 (O_TSLL var1)))))))
(assert (forall ((var0 Int) (var1 Heap) (var2 Addr) (var3 Addr) (var4 Int)) (or (not (and (inv_main103 var1 var3 var2 var0) (and (not (= var4 0)) (not (= var2 nullAddr))))) (inv_main106 var1 var3 var2 var0))))
(assert (forall ((var0 Addr) (var1 Int) (var2 Heap) (var3 Heap) (var4 Addr) (var5 Addr) (var6 Int) (var7 Addr) (var8 Addr)) (or (not (and (inv_main86 var2 var5 var4 var1) (and (not (= var7 nullAddr)) (and (and (and (and (= var3 var2) (= var8 var5)) (= var0 var4)) (= var6 var1)) (= var7 (next (getTSLL (read var2 (next (getTSLL (read var2 (next (getTSLL (read var2 var5)))))))))))))) (inv_main92 var3 var8 var0 var6))))
(assert (forall ((var0 Int) (var1 Addr) (var2 Heap) (var3 Addr) (var4 Addr) (var5 Heap) (var6 Int) (var7 Addr)) (or (not (and (inv_main13 var2 var4 var3 var0) (and (= var6 0) (and (and (and (= var5 (write var2 var3 (O_TSLL (TSLL nullAddr (data (getTSLL (read var2 var3))))))) (= var7 var4)) (= var1 var3)) (= var6 var0))))) (inv_main17 var5 var7 var1 var6))))
(assert (forall ((var0 Int) (var1 Addr) (var2 Heap) (var3 Addr) (var4 Addr) (var5 Addr) (var6 Addr) (var7 Int) (var8 Heap)) (or (not (and (inv_main80 var2 var6 var5 var0) (and (not (= var1 nullAddr)) (and (and (and (and (= var8 var2) (= var4 var6)) (= var3 var5)) (= var7 var0)) (= var1 (next (getTSLL (read var2 (next (getTSLL (read var2 var6))))))))))) (inv_main86 var8 var4 var3 var7))))
(assert (forall ((var0 Int) (var1 Heap) (var2 Addr) (var3 Addr) (var4 Heap) (var5 Int) (var6 Addr) (var7 Addr) (var8 Addr)) (or (not (and (inv_main75 var1 var3 var2 var0) (and (= var7 nullAddr) (and (and (and (and (= var4 var1) (= var8 var3)) (= var6 var2)) (= var5 var0)) (= var7 (next (getTSLL (read var1 var3)))))))) (inv_main82 var4 var8 var6 var5))))
(assert (forall ((var0 Int) (var1 Heap) (var2 Addr) (var3 Addr)) (or (not (and (inv_main16 var1 var3 var2 var0) (and (= var2 nullAddr) (not (= var3 nullAddr))))) (inv_main32 var1 var3 var2 var0))))
(assert (forall ((var0 Int) (var1 Addr) (var2 Addr) (var3 Heap) (var4 Addr) (var5 Addr) (var6 Heap) (var7 Int)) (or (not (and (inv_main13 var3 var5 var4 var0) (and (<= 0 (+ var7 (- 2))) (and (not (= var7 1)) (and (not (= var7 0)) (and (and (and (= var6 (write var3 var4 (O_TSLL (TSLL nullAddr (data (getTSLL (read var3 var4))))))) (= var1 var5)) (= var2 var4)) (= var7 var0))))))) (inv_main23 var6 var1 var2 var7))))
(assert (forall ((var0 Int) (var1 Addr) (var2 Addr) (var3 Heap) (var4 Addr) (var5 Addr) (var6 Heap) (var7 Int)) (or (not (and (inv_main13 var3 var5 var4 var0) (and (= var7 1) (and (not (= var7 0)) (and (and (and (= var6 (write var3 var4 (O_TSLL (TSLL nullAddr (data (getTSLL (read var3 var4))))))) (= var1 var5)) (= var2 var4)) (= var7 var0)))))) (inv_main20 var6 var1 var2 var7))))
(assert (forall ((var0 Int) (var1 Heap) (var2 Addr) (var3 Addr)) (or (not (and (inv_main53 var1 var3 var2 var0) (and (= var3 nullAddr) (= var0 3)))) (inv_main77 var1 var3 var2 var0))))
(assert (forall ((var0 Int) (var1 Heap) (var2 Addr) (var3 Addr)) (or (not (and (inv_main53 var1 var3 var2 var0) (not (= var0 3)))) (inv_main72 var1 var3 var2 var0))))
(assert (forall ((var0 Int) (var1 Int) (var2 Heap) (var3 Heap) (var4 Addr) (var5 Addr) (var6 Addr) (var7 Addr) (var8 Int)) (or (not (and (inv_main92 var3 var5 var4 var1) (and (= var8 3) (and (and (and (and (= var2 var3) (= var7 var5)) (= var6 var4)) (= var0 var1)) (= var8 (data (getTSLL (read var3 (next (getTSLL (read var3 (next (getTSLL (read var3 (next (getTSLL (read var3 var5))))))))))))))))) (inv_main72 var2 var7 var6 var0))))
(assert (forall ((var0 Int) (var1 Addr) (var2 Heap) (var3 Addr) (var4 Addr)) (or (not (inv_main12 var2 var4 var3 var0 var1)) (inv_main11 (write var2 var3 (O_TSLL (TSLL var1 (data (getTSLL (read var2 var3)))))) var4 var3 var0))))
(assert (forall ((var0 Int) (var1 Heap) (var2 Addr) (var3 Addr) (var4 TSLL) (var5 Int)) (or (not (and (inv_main7 var1 var3 var2 var0) (not (= var5 0)))) (inv_main12 (newHeap (alloc var1 (O_TSLL var4))) var3 var2 var0 (newAddr (alloc var1 (O_TSLL var4)))))))
(assert (forall ((var0 Int) (var1 Addr) (var2 Int) (var3 Heap) (var4 Addr) (var5 Addr) (var6 Heap) (var7 Addr) (var8 Addr)) (or (not (and (inv_main86 var3 var5 var4 var2) (and (= var1 nullAddr) (and (and (and (and (= var6 var3) (= var8 var5)) (= var7 var4)) (= var0 var2)) (= var1 (next (getTSLL (read var3 (next (getTSLL (read var3 (next (getTSLL (read var3 var5)))))))))))))) (inv_main94 var6 var8 var7 var0))))
(assert (forall ((var0 Addr) (var1 Int) (var2 Addr) (var3 Addr) (var4 Heap) (var5 Int) (var6 Addr) (var7 Addr) (var8 Heap)) (or (not (and (inv_main11 var4 var7 var6 var1) (and (and (and (and (= var8 var4) (= var0 var7)) (= var2 var6)) (= var5 var1)) (= var3 (next (getTSLL (read var4 var6))))))) (inv_main13 var8 var0 var3 var5))))
(assert (forall ((var0 Int) (var1 Heap) (var2 Addr) (var3 Addr) (var4 Int)) (or (not (and (inv_main7 var1 var3 var2 var0) (and (not (= var3 nullAddr)) (and (= var0 1) (and (not (= var3 nullAddr)) (= var4 0)))))) (inv_main43 var1 var3 var2 var0))))
(assert (forall ((var0 Int) (var1 Heap) (var2 Heap) (var3 Addr) (var4 Addr) (var5 Addr) (var6 Addr) (var7 Int) (var8 Addr)) (or (not (and (inv_main43 var2 var6 var5 var0) (and (= var4 nullAddr) (and (and (and (and (= var1 var2) (= var3 var6)) (= var8 var5)) (= var7 var0)) (= var4 (next (getTSLL (read var2 var6)))))))) (inv_main49 var1 var3 var8 var7))))
(assert (forall ((var0 Int) (var1 Heap) (var2 Addr) (var3 Addr)) (or (not (and (inv_main106 var1 var3 var2 var0) (= var0 0))) (inv_main109 var1 var3 var2 var0))))
(assert (forall ((var0 Int) (var1 Addr) (var2 Addr) (var3 Addr) (var4 Addr) (var5 Addr) (var6 Addr) (var7 Heap) (var8 Int) (var9 Heap) (var10 Int) (var11 Heap) (var12 Int) (var13 Int)) (or (not (and (inv_main106 var9 var6 var5 var0) (and (and (not (= var8 0)) (and (not (= var0 0)) (and (and (and (and (= var7 var9) (= var1 var6)) (= var4 var5)) (= var13 var0)) (= var10 (data (getTSLL (read var9 var5))))))) (and (and (and (and (= var11 var7) (= var3 var1)) (= var2 var4)) (= var12 var13)) (or (and (<= 0 (+ var10 (- 1))) (= var8 1)) (and (not (<= 0 (+ var10 (- 1)))) (= var8 0))))))) (inv_main109 var11 var3 var2 var12))))
(assert (forall ((var0 Addr) (var1 Int) (var2 Addr) (var3 Heap) (var4 Heap) (var5 Int) (var6 Addr) (var7 Addr) (var8 Addr)) (or (not (and (inv_main75 var3 var7 var6 var1) (and (not (= var0 nullAddr)) (and (and (and (and (= var4 var3) (= var8 var7)) (= var2 var6)) (= var5 var1)) (= var0 (next (getTSLL (read var3 var7)))))))) (inv_main80 var4 var8 var2 var5))))
(assert (forall ((var0 Int) (var1 Heap) (var2 Addr) (var3 Addr) (var4 Int)) (or (not (and (inv_main7 var1 var3 var2 var0) (and (not (= var0 1)) (and (not (= var3 nullAddr)) (= var4 0))))) (inv_main40 var1 var3 var2 var0))))
(assert (forall ((var0 Int) (var1 Heap) (var2 Heap) (var3 Addr) (var4 Addr) (var5 Addr) (var6 Addr) (var7 Addr) (var8 Int)) (or (not (and (inv_main43 var2 var4 var3 var0) (and (not (= var6 nullAddr)) (and (and (and (and (= var1 var2) (= var7 var4)) (= var5 var3)) (= var8 var0)) (= var6 (next (getTSLL (read var2 var4)))))))) (inv_main40 var1 var7 var5 var8))))
(assert (forall ((var0 Int) (var1 Heap) (var2 Addr) (var3 Addr)) (or (not (and (inv_main16 var1 var3 var2 var0) (= var3 nullAddr))) (inv_main28 var1 var3 var2 var0))))
(assert (forall ((var0 Int) (var1 Heap) (var2 Addr) (var3 Addr)) (or (not (and (inv_main40 var1 var3 var2 var0) (and (= var3 nullAddr) (= var0 2)))) (inv_main58 var1 var3 var2 var0))))
(assert (forall ((var0 Int) (var1 Heap) (var2 Addr) (var3 Addr)) (or (not (and (inv_main16 var1 var3 var2 var0) (and (not (= var2 nullAddr)) (not (= var3 nullAddr))))) (inv_main7 var1 var3 var2 var0))))
(assert (forall ((var0 Addr) (var1 Heap) (var2 Heap) (var3 Addr)) (or (not (and (inv_main4 var1 var3) (and (= var2 (write var1 var3 (O_TSLL (TSLL (next (getTSLL (read var1 var3))) 0)))) (= var0 var3)))) (inv_main7 var2 var0 var0 0))))
(assert (forall ((var0 Int) (var1 Heap) (var2 Addr) (var3 Addr)) (or (not (and (inv_main103 var1 var3 var2 var0) (and (not (= var3 nullAddr)) (= var2 nullAddr)))) (inv_main119 var1 var3 var3 var0))))
(assert (forall ((var0 Int) (var1 Heap) (var2 Addr) (var3 Addr) (var4 Int)) (or (not (and (inv_main103 var1 var3 var2 var0) (and (not (= var3 nullAddr)) (and (= var4 0) (not (= var2 nullAddr)))))) (inv_main119 var1 var3 var3 var0))))
(assert (forall ((var0 Addr) (var1 Int) (var2 Addr) (var3 Int) (var4 Heap) (var5 Addr) (var6 Addr) (var7 Heap) (var8 Addr) (var9 Addr) (var10 Addr) (var11 Heap) (var12 Int)) (or (not (and (inv_main119 var7 var9 var8 var1) (and (and (not (= var6 nullAddr)) (and (and (and (and (= var4 var7) (= var0 var9)) (= var5 var8)) (= var3 var1)) (= var2 (next (getTSLL (read var7 var9)))))) (and (and (and (= var11 (write var4 var5 defObj)) (= var6 var2)) (= var10 var5)) (= var12 var3))))) (inv_main119 var11 var6 var6 var12))))
(assert (forall ((var0 Int) (var1 Int) (var2 Heap) (var3 Addr) (var4 Addr) (var5 Addr) (var6 Addr) (var7 Addr) (var8 Heap)) (or (not (and (inv_main56 var2 var7 var6 var1) (and (= var4 nullAddr) (and (and (and (and (= var8 var2) (= var3 var7)) (= var5 var6)) (= var0 var1)) (= var4 (next (getTSLL (read var2 var7)))))))) (inv_main63 var8 var3 var5 var0))))
(assert (forall ((var0 Heap) (var1 Addr)) (not (and (inv_main3 var0 var1) (not (is-O_TSLL (read var0 var1)))))))
(assert (forall ((var0 Heap) (var1 Addr)) (not (and (inv_main4 var0 var1) (not (is-O_TSLL (read var0 var1)))))))
(assert (forall ((var0 Int) (var1 Addr) (var2 Heap) (var3 Addr) (var4 Addr)) (not (and (inv_main12 var2 var4 var3 var0 var1) (not (is-O_TSLL (read var2 var3)))))))
(assert (forall ((var0 Int) (var1 Heap) (var2 Addr) (var3 Addr)) (not (and (inv_main11 var1 var3 var2 var0) (not (is-O_TSLL (read var1 var2)))))))
(assert (forall ((var0 Int) (var1 Heap) (var2 Addr) (var3 Addr)) (not (and (inv_main13 var1 var3 var2 var0) (not (is-O_TSLL (read var1 var2)))))))
(assert (forall ((var0 Int) (var1 Heap) (var2 Addr) (var3 Addr)) (not (and (inv_main17 var1 var3 var2 var0) (not (is-O_TSLL (read var1 var2)))))))
(assert (forall ((var0 Int) (var1 Heap) (var2 Addr) (var3 Addr)) (not (and (inv_main20 var1 var3 var2 var0) (not (is-O_TSLL (read var1 var2)))))))
(assert (forall ((var0 Int) (var1 Heap) (var2 Addr) (var3 Addr)) (not (and (inv_main23 var1 var3 var2 var0) (not (is-O_TSLL (read var1 var2)))))))
(assert (forall ((var0 Int) (var1 Heap) (var2 Addr) (var3 Addr)) (not (inv_main28 var1 var3 var2 var0))))
(assert (forall ((var0 Int) (var1 Heap) (var2 Addr) (var3 Addr)) (not (inv_main32 var1 var3 var2 var0))))
(assert (forall ((var0 Int) (var1 Heap) (var2 Addr) (var3 Addr)) (not (inv_main37 var1 var3 var2 var0))))
(assert (forall ((var0 Int) (var1 Heap) (var2 Addr) (var3 Addr)) (not (inv_main45 var1 var3 var2 var0))))
(assert (forall ((var0 Int) (var1 Heap) (var2 Addr) (var3 Addr)) (not (and (inv_main43 var1 var3 var2 var0) (not (is-O_TSLL (read var1 var3)))))))
(assert (forall ((var0 Int) (var1 Heap) (var2 Addr) (var3 Addr)) (not (inv_main49 var1 var3 var2 var0))))
(assert (forall ((var0 Int) (var1 Heap) (var2 Addr) (var3 Addr)) (not (inv_main58 var1 var3 var2 var0))))
(assert (forall ((var0 Int) (var1 Heap) (var2 Addr) (var3 Addr)) (not (and (inv_main56 var1 var3 var2 var0) (not (is-O_TSLL (read var1 var3)))))))
(assert (forall ((var0 Int) (var1 Heap) (var2 Addr) (var3 Addr)) (not (inv_main63 var1 var3 var2 var0))))
(assert (forall ((var0 Int) (var1 Heap) (var2 Addr) (var3 Addr)) (not (and (inv_main61 var1 var3 var2 var0) (not (is-O_TSLL (read var1 var3)))))))
(assert (forall ((var0 Int) (var1 Heap) (var2 Addr) (var3 Addr)) (not (and (inv_main61 var1 var3 var2 var0) (not (is-O_TSLL (read var1 (next (getTSLL (read var1 var3))))))))))
(assert (forall ((var0 Int) (var1 Heap) (var2 Addr) (var3 Addr)) (not (inv_main68 var1 var3 var2 var0))))
(assert (forall ((var0 Int) (var1 Heap) (var2 Addr) (var3 Addr)) (not (inv_main77 var1 var3 var2 var0))))
(assert (forall ((var0 Int) (var1 Heap) (var2 Addr) (var3 Addr)) (not (and (inv_main75 var1 var3 var2 var0) (not (is-O_TSLL (read var1 var3)))))))
(assert (forall ((var0 Int) (var1 Heap) (var2 Addr) (var3 Addr)) (not (inv_main82 var1 var3 var2 var0))))
(assert (forall ((var0 Int) (var1 Heap) (var2 Addr) (var3 Addr)) (not (and (inv_main80 var1 var3 var2 var0) (not (is-O_TSLL (read var1 var3)))))))
(assert (forall ((var0 Int) (var1 Heap) (var2 Addr) (var3 Addr)) (not (and (inv_main80 var1 var3 var2 var0) (not (is-O_TSLL (read var1 (next (getTSLL (read var1 var3))))))))))
(assert (forall ((var0 Int) (var1 Heap) (var2 Addr) (var3 Addr)) (not (inv_main88 var1 var3 var2 var0))))
(assert (forall ((var0 Int) (var1 Heap) (var2 Addr) (var3 Addr)) (not (and (inv_main86 var1 var3 var2 var0) (not (is-O_TSLL (read var1 var3)))))))
(assert (forall ((var0 Int) (var1 Heap) (var2 Addr) (var3 Addr)) (not (and (inv_main86 var1 var3 var2 var0) (not (is-O_TSLL (read var1 (next (getTSLL (read var1 var3))))))))))
(assert (forall ((var0 Int) (var1 Heap) (var2 Addr) (var3 Addr)) (not (and (inv_main86 var1 var3 var2 var0) (not (is-O_TSLL (read var1 (next (getTSLL (read var1 (next (getTSLL (read var1 var3)))))))))))))
(assert (forall ((var0 Int) (var1 Heap) (var2 Addr) (var3 Addr)) (not (inv_main94 var1 var3 var2 var0))))
(assert (forall ((var0 Int) (var1 Heap) (var2 Addr) (var3 Addr)) (not (and (inv_main92 var1 var3 var2 var0) (not (is-O_TSLL (read var1 var3)))))))
(assert (forall ((var0 Int) (var1 Heap) (var2 Addr) (var3 Addr)) (not (and (inv_main92 var1 var3 var2 var0) (not (is-O_TSLL (read var1 (next (getTSLL (read var1 var3))))))))))
(assert (forall ((var0 Int) (var1 Heap) (var2 Addr) (var3 Addr)) (not (and (inv_main92 var1 var3 var2 var0) (not (is-O_TSLL (read var1 (next (getTSLL (read var1 (next (getTSLL (read var1 var3)))))))))))))
(assert (forall ((var0 Int) (var1 Heap) (var2 Addr) (var3 Addr)) (not (and (inv_main92 var1 var3 var2 var0) (not (is-O_TSLL (read var1 (next (getTSLL (read var1 (next (getTSLL (read var1 (next (getTSLL (read var1 var3))))))))))))))))
(assert (forall ((var0 Int) (var1 Heap) (var2 Addr) (var3 Addr)) (not (inv_main99 var1 var3 var2 var0))))
(assert (forall ((var0 Int) (var1 Heap) (var2 Addr) (var3 Addr)) (not (and (inv_main72 var1 var3 var2 var0) (not (is-O_TSLL (read var1 var3)))))))
(assert (forall ((var0 Int) (var1 Heap) (var2 Addr) (var3 Addr)) (not (and (inv_main106 var1 var3 var2 var0) (and (not (= var0 0)) (not (is-O_TSLL (read var1 var2))))))))
(assert (forall ((var0 Int) (var1 Heap) (var2 Addr) (var3 Addr)) (not (inv_main111 var1 var3 var2 var0))))
(assert (forall ((var0 Int) (var1 Heap) (var2 Addr) (var3 Addr)) (not (and (inv_main109 var1 var3 var2 var0) (not (is-O_TSLL (read var1 var2)))))))
(assert (forall ((var0 Int) (var1 Heap) (var2 Addr) (var3 Addr)) (not (and (inv_main119 var1 var3 var2 var0) (not (is-O_TSLL (read var1 var3)))))))
(check-sat)
